100
10
5 3 6 4 7 7 1 8 1 5 2 6 1 6 8 4 4 6 5 1 1 4 3 1 4 6 8 2 3 4 2 1 4 1 4 3 2 1 7 3 4 6 5 2 2 8 7 2 7 5 7 8 5 5 6 1 7 8 5 8 4 5 5 2 4 4 8 7 6 5 3 7 7 5 3 8 1 1 2 8 8 5 7 2 7 5 8 1 8 4 5 7 4 4 8 3 8 4 6 5
28 10 28 6 13 26 14 22 13 9 25 2 22 17 27 25 13 12 18 4 3 20 2 6 5 3 27 12 4 13 7 14 3 18 11 25 8 1 21 27 14 3 18 26 18 8 11 11 25 1 15 24 15 27 5 2 2 24 26 13 24 3 19 18 17 15 18 30 18 19 7 3 16 3 19 18 22 14 9 29 15 7 20 18 11 13 8 23 19 11 26 19 6 19 11 24 13 12 14 16
